32	4
16	12	12	12
0	0	0	0	0	1	2
7	16	3	12	12	1	3
7	16	12	5	10	2	4	5
8	12	12	12	6	2	6	7
4	15	8	11	12	2	6	7
9	10	12	10	12	1	8
5	14	8	10	8	1	8
4	6	9	7	6	2	9	10
6	16	12	11	12	2	11	13
8	4	1	10	7	2	11	13
2	16	7	6	12	1	12
9	7	3	8	10	1	14
6	16	12	12	4	1	14
8	16	9	12	4	1	15
5	6	12	6	8	1	16
5	6	12	1	11	1	17
9	16	12	12	11	2	18	19
8	11	12	6	10	1	20
9	8	11	9	12	1	20
4	3	12	10	12	1	21
2	16	12	12	6	1	22
10	16	9	10	1	1	23
3	16	12	4	12	1	24
3	14	6	12	5	1	25
8	1	12	7	12	1	26
4	16	12	10	5	1	27
5	7	11	1	10	1	28
1	16	8	8	12	1	29
2	16	3	12	12	2	30	31
5	12	2	12	6	1	32
10	16	4	12	10	1	32
0	0	0	0	0	0
